100 57714

 850 81
197 940
126 756
964 587
109 829
479 81
586 477
542 631
87 829
58 784
106 278
586 941
545 125
234 876
638 971
821 178
42 723
499 41
690 406
253 517
308 581
614 936
898 673
810 482
584 810
731 951
365 23
641 983
467 87
190 815
702 281
557 133
359 440
912 644
21 381
316 55
57 600
767 903
703 384
332 217
676 443
396 49
757 821
455 827
413 589
935 354
251 800
121 555
585 826
970 632
378 785
63 599
340 415
506 958
162 542
659 606
998 221
452 626
355 572
401 185
116 60
884 605
415 764
388 524
660 227
443 667
649 81
62 442
814 164
941 185
649 203
955 387
152 52
478 398
602 512
582 484
402 383
339 840
127 146
392 506
163 63
735 72
209 574
59 567
553 879
596 558
872 960
577 49
346 99
804 45
541 186
80 542
566 646
909 46
397 946
297 843
144 297
152 78
433 170
596 127
